(set-logic HORN)
(declare-datatypes ((Nat_0 0)) (((Z_0 ) (S_0 (unS_0 Nat_0)))))
(declare-fun diseqNat_0 (Nat_0 Nat_0) Bool)
(declare-fun unS_1 (Nat_0 Nat_0) Bool)
(declare-fun isZ_0 (Nat_0) Bool)
(declare-fun isS_0 (Nat_0) Bool)
(assert (forall ((x_20 Nat_0) (x_19 Nat_0))
	(=> (= x_20 (S_0 x_19))
	    (unS_1 x_19 x_20))))
(assert (isZ_0 Z_0))
(assert (forall ((x_21 Nat_0))
	(isS_0 (S_0 x_21))))
(assert (forall ((x_22 Nat_0))
	(diseqNat_0 Z_0 (S_0 x_22))))
(assert (forall ((x_23 Nat_0))
	(diseqNat_0 (S_0 x_23) Z_0)))
(assert (forall ((x_24 Nat_0) (x_25 Nat_0))
	(=> (diseqNat_0 x_24 x_25)
	    (diseqNat_0 (S_0 x_24) (S_0 x_25)))))
(declare-fun add_0 (Nat_0 Nat_0 Nat_0) Bool)
(declare-fun minus_0 (Nat_0 Nat_0 Nat_0) Bool)
(declare-fun le_0 (Nat_0 Nat_0) Bool)
(declare-fun ge_0 (Nat_0 Nat_0) Bool)
(declare-fun lt_0 (Nat_0 Nat_0) Bool)
(declare-fun gt_0 (Nat_0 Nat_0) Bool)
(declare-fun mult_0 (Nat_0 Nat_0 Nat_0) Bool)
(declare-fun div_0 (Nat_0 Nat_0 Nat_0) Bool)
(declare-fun mod_0 (Nat_0 Nat_0 Nat_0) Bool)
(assert (forall ((y_3 Nat_0))
	(add_0 y_3 Z_0 y_3)))
(assert (forall ((x_17 Nat_0) (y_3 Nat_0) (r_0 Nat_0))
	(=> (add_0 r_0 x_17 y_3)
	    (add_0 (S_0 r_0) (S_0 x_17) y_3))))
(assert (forall ((y_3 Nat_0))
	(minus_0 Z_0 Z_0 y_3)))
(assert (forall ((x_17 Nat_0) (y_3 Nat_0) (r_0 Nat_0))
	(=> (minus_0 r_0 x_17 y_3)
	    (minus_0 (S_0 r_0) (S_0 x_17) y_3))))
(assert (forall ((y_3 Nat_0))
	(le_0 Z_0 y_3)))
(assert (forall ((x_17 Nat_0) (y_3 Nat_0))
	(=> (le_0 x_17 y_3)
	    (le_0 (S_0 x_17) (S_0 y_3)))))
(assert (forall ((y_3 Nat_0))
	(ge_0 y_3 Z_0)))
(assert (forall ((x_17 Nat_0) (y_3 Nat_0))
	(=> (ge_0 x_17 y_3)
	    (ge_0 (S_0 x_17) (S_0 y_3)))))
(assert (forall ((y_3 Nat_0))
	(lt_0 Z_0 (S_0 y_3))))
(assert (forall ((x_17 Nat_0) (y_3 Nat_0))
	(=> (lt_0 x_17 y_3)
	    (lt_0 (S_0 x_17) (S_0 y_3)))))
(assert (forall ((y_3 Nat_0))
	(gt_0 (S_0 y_3) Z_0)))
(assert (forall ((x_17 Nat_0) (y_3 Nat_0))
	(=> (gt_0 x_17 y_3)
	    (gt_0 (S_0 x_17) (S_0 y_3)))))
(assert (forall ((y_3 Nat_0))
	(mult_0 Z_0 Z_0 y_3)))
(assert (forall ((x_17 Nat_0) (y_3 Nat_0) (r_0 Nat_0) (z_1 Nat_0))
	(=>	(and (mult_0 r_0 x_17 y_3)
			(add_0 z_1 r_0 y_3))
		(mult_0 z_1 (S_0 x_17) y_3))))
(assert (forall ((x_17 Nat_0) (y_3 Nat_0))
	(=> (lt_0 x_17 y_3)
	    (div_0 Z_0 x_17 y_3))))
(assert (forall ((x_17 Nat_0) (y_3 Nat_0) (r_0 Nat_0) (z_1 Nat_0))
	(=>	(and (ge_0 x_17 y_3)
			(minus_0 z_1 x_17 y_3)
			(div_0 r_0 z_1 y_3))
		(div_0 (S_0 r_0) x_17 y_3))))
(assert (forall ((x_17 Nat_0) (y_3 Nat_0))
	(=> (lt_0 x_17 y_3)
	    (mod_0 x_17 x_17 y_3))))
(assert (forall ((x_17 Nat_0) (y_3 Nat_0) (r_0 Nat_0) (z_1 Nat_0))
	(=>	(and (ge_0 x_17 y_3)
			(minus_0 z_1 x_17 y_3)
			(mod_0 r_0 z_1 y_3))
		(mod_0 r_0 x_17 y_3))))
(declare-datatypes ((list_0 0)) (((nil_0 ) (cons_0 (head_0 Nat_0) (tail_0 list_0)))))
(declare-fun diseqlist_0 (list_0 list_0) Bool)
(declare-fun head_1 (Nat_0 list_0) Bool)
(declare-fun tail_1 (list_0 list_0) Bool)
(declare-fun isnil_0 (list_0) Bool)
(declare-fun iscons_0 (list_0) Bool)
(assert (forall ((x_29 list_0) (x_27 Nat_0) (x_28 list_0))
	(=> (= x_29 (cons_0 x_27 x_28))
	    (head_1 x_27 x_29))))
(assert (forall ((x_29 list_0) (x_27 Nat_0) (x_28 list_0))
	(=> (= x_29 (cons_0 x_27 x_28))
	    (tail_1 x_28 x_29))))
(assert (isnil_0 nil_0))
(assert (forall ((x_30 Nat_0) (x_31 list_0))
	(iscons_0 (cons_0 x_30 x_31))))
(assert (forall ((x_32 Nat_0) (x_33 list_0))
	(diseqlist_0 nil_0 (cons_0 x_32 x_33))))
(assert (forall ((x_34 Nat_0) (x_35 list_0))
	(diseqlist_0 (cons_0 x_34 x_35) nil_0)))
(assert (forall ((x_36 Nat_0) (x_37 list_0) (x_38 Nat_0) (x_39 list_0))
	(=> (diseqNat_0 x_36 x_38)
	    (diseqlist_0 (cons_0 x_36 x_37) (cons_0 x_38 x_39)))))
(assert (forall ((x_36 Nat_0) (x_37 list_0) (x_38 Nat_0) (x_39 list_0))
	(=> (diseqlist_0 x_37 x_39)
	    (diseqlist_0 (cons_0 x_36 x_37) (cons_0 x_38 x_39)))))
(declare-fun x_0 (list_0 list_0 list_0) Bool)
(assert (forall ((x_1 list_0) (y_0 list_0) (z_0 Nat_0) (xs_0 list_0) (x_4 list_0) (x_5 list_0))
	(=>	(and (= x_4 (cons_0 z_0 x_5))
			(x_0 x_5 xs_0 y_0)
			(= x_1 (cons_0 z_0 xs_0)))
		(x_0 x_4 x_1 y_0))))
(assert (forall ((x_1 list_0) (y_0 list_0) (x_6 list_0))
	(=>	(and (= x_6 y_0)
			(= x_1 nil_0))
		(x_0 x_6 x_1 y_0))))
(declare-fun rev_0 (list_0 list_0) Bool)
(assert (forall ((x_2 list_0) (y_1 Nat_0) (xs_1 list_0) (x_7 list_0) (x_8 list_0) (x_9 list_0))
	(=>	(and (= x_7 x_9)
			(rev_0 x_8 xs_1)
			(x_0 x_9 x_8 (cons_0 y_1 nil_0))
			(= x_2 (cons_0 y_1 xs_1)))
		(rev_0 x_7 x_2))))
(assert (forall ((x_2 list_0) (x_10 list_0))
	(=>	(and (= x_10 nil_0)
			(= x_2 nil_0))
		(rev_0 x_10 x_2))))
(assert (forall ((x_3 list_0) (y_2 list_0) (x_11 list_0) (x_12 list_0) (x_13 list_0) (x_14 list_0) (x_15 list_0) (x_16 list_0))
	(=>	(and (diseqlist_0 x_13 x_16)
			(rev_0 x_11 x_3)
			(rev_0 x_12 x_11)
			(x_0 x_13 x_12 y_2)
			(x_0 x_14 x_3 y_2)
			(rev_0 x_15 x_14)
			(rev_0 x_16 x_15))
		false)))
(check-sat)
